************************************************************************
file with basedata            : md366_.bas
initial value random generator: 1225635802
************************************************************************
projects                      :  1
jobs (incl. supersource/sink ):  22
horizon                       :  164
RESOURCES
  - renewable                 :  2   R
  - nonrenewable              :  2   N
  - doubly constrained        :  0   D
************************************************************************
PROJECT INFORMATION:
pronr.  #jobs rel.date duedate tardcost  MPM-Time
    1     20      0       26        1       26
************************************************************************
PRECEDENCE RELATIONS:
jobnr.    #modes  #successors   successors
   1        1          3           2   3   4
   2        3          3           5   8   9
   3        3          2           7  17
   4        3          3           6  12  14
   5        3          1          15
   6        3          3           7  17  18
   7        3          3          10  15  19
   8        3          3          10  11  14
   9        3          3          11  20  21
  10        3          2          13  20
  11        3          1          12
  12        3          1          18
  13        3          1          16
  14        3          3          15  16  17
  15        3          2          20  21
  16        3          1          21
  17        3          1          19
  18        3          1          19
  19        3          1          22
  20        3          1          22
  21        3          1          22
  22        1          0        
************************************************************************
REQUESTS/DURATIONS:
jobnr. mode duration  R 1  R 2  N 1  N 2
------------------------------------------------------------------------
  1      1     0       0    0    0    0
  2      1     2       7   10    8    1
         2     2       6   10    9    1
         3     8       5    8    3    1
  3      1     5       6    6    7   10
         2     5       7    9    7    9
         3     8       4    5    3    8
  4      1     3       6    9    9    2
         2     7       4    8    8    2
         3     7       6    8    8    1
  5      1     2       4    6    7    7
         2     2       4    8    6    7
         3     4       4    5    6    6
  6      1     5       3    4    2    8
         2     5       4    3    2    8
         3    10       3    2    2    8
  7      1     4       9    1    8    2
         2     6       8    1    4    2
         3     9       8    1    3    2
  8      1     4       8    8    4    5
         2     4       7   10    5    6
         3     7       4    5    2    5
  9      1     6       4    3    7    4
         2     6       5    2   10    4
         3    10       3    2    2    1
 10      1     1      10   10    7    4
         2     7      10    8    7    4
         3     7      10    9    7    1
 11      1     1       7    8    8    9
         2     5       7    7    8    7
         3     9       6    6    7    1
 12      1     1       8    6    6    7
         2     2       7    5    3    5
         3     9       6    5    3    2
 13      1     7       6    6    8    4
         2     8       6    6    7    4
         3    10       5    5    5    4
 14      1     2       2    9    7    6
         2     7       2    9    7    4
         3    10       2    6    7    3
 15      1     2      10    9    7    9
         2     4       6    9    7    7
         3     8       4    6    5    6
 16      1     3       5    3    4    4
         2     5       4    3    4    3
         3     8       3    3    4    2
 17      1     4       5    7    8    5
         2     7       5    5    8    4
         3    10       4    2    7    4
 18      1     4       7    2    6    4
         2     6       7    2    6    3
         3     7       6    1    6    3
 19      1     2       5    3    1    8
         2     4       4    2    1    6
         3     6       3    1    1    5
 20      1     4       8    9    6    4
         2     7       6    9    4    4
         3     8       2    8    4    3
 21      1     3       5    6    4    3
         2     7       4    5    4    3
         3     9       3    5    2    3
 22      1     0       0    0    0    0
************************************************************************
RESOURCEAVAILABILITIES:
  R 1  R 2  N 1  N 2
   20   24  108   88
************************************************************************
MAXIMAL LAGS:
from  to  type  delay
    1   12   ES      0
    1    2   ES      0
    2   12   ES      0
    1    3   ES      0
    3   12   ES      0
    1    4   ES      0
    4   12   ES      0
    1    5   ES      0
    5   12   ES      0
    1    6   ES      0
    6   12   ES      0
    1    7   ES      0
    7   12   ES      0
    1    8   ES      0
    8   12   ES      0
    1    9   ES      0
    9   12   ES      0
    1   10   ES      0
   10   12   ES      0
    1   11   ES      0
   11   12   ES      0
    1   12   ES      0
    2    5   SS     12
    2    5   SE    -11
    2    5   ES     -4
    2    5   EE     -5
    2    8   SS      4
    2    8   SE     -9
    2    8   ES      2
    2    8   EE      2
    2    9   SS      7
    2    9   SE      7
    2    9   ES     11
    2    9   EE      4
    3    7   SS      6
    3    7   SE      6
    3    7   ES     -8
    3    7   EE     -4
    3   17   SS      0
    3   17   SE      6
    3   17   ES     -7
    3   17   EE     -3
    4    6   SS      2
    4    6   SE    -12
    4    6   ES     -3
    4    6   EE      4
    4   14   SS     -9
    4   14   SE     -9
    4   14   ES      9
    4   14   EE     -6
    5   15   SS    -11
    5   15   SE    -10
    5   15   ES      4
    5   15   EE      1
    6    7   SS     12
    6    7   SE     -3
    6    7   ES     -5
    6    7   EE     -8
    6   17   SS     -5
    6   17   SE    -10
    6   17   ES     -4
    6   17   EE     -1
    6   18   SS     10
    6   18   SE      0
    6   18   ES     -1
    6   18   EE     -9
    7   10   SS      4
    7   10   SE     -9
    7   10   ES     -7
    7   10   EE      2
    7   15   SS     -1
    7   15   SE      7
    7   15   ES    -10
    7   15   EE      3
    7   19   SS    -11
    7   19   SE    -12
    7   19   ES     -5
    7   19   EE     -4
    8   10   SS     -5
    8   10   SE     12
    8   10   ES      2
    8   10   EE     -4
    8   11   SS     -6
    8   11   SE     11
    8   11   ES     -8
    8   11   EE     -1
    8   14   SS      0
    8   14   SE      9
    8   14   ES      3
    8   14   EE     -3
    9   11   SS    -12
    9   11   SE     10
    9   11   ES     -2
    9   11   EE     -6
    9   20   SS      0
    9   20   SE     -8
    9   20   ES     -2
    9   20   EE    -10
    9   21   SS      8
    9   21   SE      9
    9   21   ES     -8
    9   21   EE     -6
   10   13   SS     -9
   10   13   SE    -10
   10   13   ES     -2
   10   13   EE     -4
   10   20   SS     -9
   10   20   SE      8
   10   20   ES    -10
   10   20   EE     -9
   12   18   SS      6
   12   18   SE    -12
   12   18   ES      8
   12   18   EE     -8
   13   16   SS    -12
   13   16   SE      0
   13   16   ES    -12
   13   16   EE      3
   14   15   SS     -9
   14   15   SE     -5
   14   15   ES     11
   14   15   EE      0
   14   16   SS      8
   14   16   SE      6
   14   16   ES     -6
   14   16   EE    -11
   14   17   SS    -11
   14   17   SE     -1
   14   17   ES     -8
   14   17   EE     -7
   15   20   SS    -10
   15   20   SE      9
   15   20   ES     -3
   15   20   EE     -4
   15   21   SS     -7
   15   21   SE      8
   15   21   ES      1
   15   21   EE      2
   16   21   SS      8
   16   21   SE     -5
   16   21   ES     11
   16   21   EE     12
   17   19   SS     -1
   17   19   SE     -6
   17   19   ES      5
   17   19   EE     -4
   18   19   SS      9
   18   19   SE     -8
   18   19   ES     -2
   18   19   EE     12
   19   22   SS      1
   19   22   SE     -9
   19   22   ES     -9
   19   22   EE      1
   20   22   SS     -9
   20   22   SE      9
   20   22   ES     -2
   20   22   EE      9
   21   22   SS     12
   21   22   SE      7
   21   22   ES      6
   21   22   EE     10
************************************************************************
